num_offers = 35;
num_halls = 10;
start=[41,4,24,4,1,10,9,34,27,7,18,28,7,5,38,28,25,12,21,24,17,11,72,42,38,2,6,19,36,55,35,44,23,3,6];
end=[69,92,78,32,40,86,49,77,94,77,96,69,35,99,66,85,66,33,58,52,59,74,86,81,66,78,81,24,89,64,70,56,58,65,74];
price=[399,5294,1207,552,3884,6552,698,3938,4134,6536,1568,4051,1988,7973,307,779,2166,1919,2710,1383,2833,5232,180,1696,2143,5012,6707,365,2476,595,1615,411,868,2811,1652];
requirement=[764,259,405,596,859,647,393,575,341,255,412,399,219,762,542,722,345,412,399,901,878,996,637,857,494,395,605,200,920,833,850,214,461,632,905];
capacity=[966,606,320,540,431,496,656,326,540,887];
